ACES POSCAR                             
   1.00000000000000     
     4.4120514810677705   -0.0000000011956334   -0.0000000013126152
    -2.2060257991683905    8.0188934660014617    0.2767395053194947
    -0.0000000022899794   -2.8117786254255424   10.6854313063823163
   Bi   I 
     4     4
Direct
  0.1830026101393031  0.3660052212787150  0.9924751494063593
  0.8061775883208340  0.6123551766418338  0.7242017918630572
  0.1938224266791712  0.3876448533581614  0.2757982081369427
  0.8169974048606945  0.6339948087212803  0.0075248775936464
  0.4478898357352210  0.8957796724705147  0.7786603534033066
  0.5521101642647788  0.1042203125294809  0.2213396755966927
  0.8346795995969944  0.6693591991939111  0.3600217543945791
  0.1653203854030080  0.3306407718060899  0.6399782156054185
 
  0.00000000E+00  0.00000000E+00  0.00000000E+00
  0.00000000E+00  0.00000000E+00  0.00000000E+00
  0.00000000E+00  0.00000000E+00  0.00000000E+00
  0.00000000E+00  0.00000000E+00  0.00000000E+00
  0.00000000E+00  0.00000000E+00  0.00000000E+00
  0.00000000E+00  0.00000000E+00  0.00000000E+00
  0.00000000E+00  0.00000000E+00  0.00000000E+00
  0.00000000E+00  0.00000000E+00  0.00000000E+00
