Bi I 
   1.0
    13.1653657873800007   -0.0000000047781999   -0.0000000038845620
    -4.3884553805800000   16.2404679707799993    0.5483572280940000
    -0.0000000038786378   -5.7211992978600001   21.4054762178000004
  48  48
Direct
  0.0612067089930000  0.1836201274795000  0.4968348948878840
  0.3945400423263334  0.1836201274795000  0.4963835674390000
  0.7278733756596667  0.1836201274795000  0.4963835674390000
  0.0612067089930000  0.6836201274795000  0.4963835674389999
  0.3945400423263335  0.6836201274795001  0.4963835674389999
  0.7278733756596667  0.6836201274795001  0.4963835674390000
  0.0612067089930000  0.1836201274795000  0.9963835674390000
  0.3945400423263334  0.1836201274795000  0.9963835674390000
  0.7278733756596667  0.1836201274794999  0.9963835674390000
  0.0612067089930000  0.6836201274795000  0.9963835674389999
  0.3945400423263335  0.6836201274795001  0.9963835674389999
  0.7278733756596668  0.6836201274795001  0.9963835674389999
  0.2680660109863334  0.3041980329595000  0.3619751718255000
  0.6013993443196667  0.3041980329595000  0.3619751718255000
  0.9347326776530001  0.3041980329595000  0.3619751718255000
  0.2680660109863334  0.8041980329595000  0.3619751718255000
  0.6013993443196668  0.8041980329595000  0.3619751718254999
  0.9347326776529999  0.8041980329595000  0.3619751718255000
  0.2680660109863334  0.3041980329595001  0.8619751718255001
  0.6013993443196668  0.3041980329595000  0.8619751718255002
  0.9347326776530001  0.3041980329595001  0.8619751718255001
  0.2680660109863335  0.8041980329595002  0.8619751718255001
  0.6013993443196668  0.8041980329595001  0.8619751718255001
  0.9347326776530001  0.8041980329595000  0.8619751718255001
  0.0652673273470000  0.1958019820405000  0.1380248281745000
  0.3986006606803333  0.1958019820405000  0.1380248281745000
  0.7319339940136667  0.1958019820405000  0.1380248281745000
  0.0652673273470001  0.6958019820405001  0.1380248281745000
  0.3986006606803334  0.6958019820405001  0.1380248281745000
  0.7319339940136667  0.6958019820405001  0.1380248281745000
  0.0652673273470000  0.1958019820405000  0.6380248281745000
  0.3986006606803333  0.1958019820405000  0.6380248281745001
  0.7319339940136665  0.1958019820405000  0.6380248281745000
  0.0652673273470001  0.6958019820405001  0.6380248281745000
  0.3986006606803335  0.6958019820405001  0.6380248281745001
  0.7319339940136667  0.6958019820405001  0.6380248281745001
  0.2721266293403333  0.3163798875205001  0.0036164460608400
  0.6054599626736666  0.3163798875205001  0.0036164460608400
  0.9387932960070001  0.3163798875205001  0.0036164460608400
  0.2721266293403334  0.8163798875204998  0.0036164460608400
  0.6054599626736666  0.8163798875204999  0.0036164460608400
  0.9387932960070002  0.8163798875204999  0.0036164460608400
  0.2721266293403333  0.3163798875205001  0.5036164460608400
  0.6054599626736666  0.3163798875205000  0.5036164460608400
  0.9387932960070001  0.3163798875204999  0.5036164460608400
  0.2721266293403334  0.8163798875204999  0.5036164460608399
  0.6054599626736666  0.8163798875205001  0.5036164460608400
  0.9387932960070001  0.8163798875204999  0.5036164460608400
  0.1481979225636667  0.4445937681910000  0.3881460484950000
  0.4815312558970000  0.4445937681910000  0.3881460484950000
  0.8148645892303333  0.4445937681910000  0.3881460484950001
  0.1481979225636668  0.9445937681909999  0.3881460484950001
  0.4815312558970001  0.9445937681909999  0.3881460484950001
  0.8148645892303334  0.9445937681909999  0.3881460484950001
  0.1481979225636667  0.4445937681910000  0.8881460484950000
  0.4815312558970000  0.4445937681910000  0.8881460484950000
  0.8148645892303334  0.4445937681910000  0.8881460484950001
  0.1481979225636667  0.9445937681909998  0.8881460484950000
  0.4815312558970000  0.9445937681909999  0.8881460484950000
  0.8148645892303334  0.9445937681909998  0.8881460484950000
  0.1851354107696667  0.0554062243090000  0.1118539660050000
  0.5184687441030000  0.0554062243090000  0.1118539660050000
  0.8518020774363334  0.0554062243090000  0.1118539660050000
  0.1851354107696667  0.5554062243090001  0.1118539660050000
  0.5184687441030000  0.5554062243090001  0.1118539660050000
  0.8518020774363334  0.5554062243090000  0.1118539660050000
  0.1851354107696667  0.0554062243090000  0.6118539660050001
  0.5184687441030000  0.0554062243090000  0.6118539660050000
  0.8518020774363335  0.0554062243090000  0.6118539660050000
  0.1851354107696667  0.5554062243090001  0.6118539660050000
  0.5184687441030000  0.5554062243090000  0.6118539660050000
  0.8518020774363334  0.5554062243090000  0.6118539660050001
  0.2785534403396667  0.3356603210190000  0.1798870898690000
  0.6118867736730003  0.3356603210190001  0.1798870898690000
  0.9452201070063335  0.3356603210190000  0.1798870898690000
  0.2785534403396668  0.8356603210190001  0.1798870898690000
  0.6118867736730002  0.8356603210190001  0.1798870898690000
  0.9452201070063337  0.8356603210190001  0.1798870898690000
  0.2785534403396667  0.3356603210190000  0.6798870898689999
  0.6118867736730002  0.3356603210190000  0.6798870898690000
  0.9452201070063336  0.3356603210190000  0.6798870898690000
  0.2785534403396668  0.8356603210190001  0.6798870898690000
  0.6118867736730002  0.8356603210190001  0.6798870898690000
  0.9452201070063336  0.8356603210190000  0.6798870898690000
  0.0547798879936667  0.1643396644810000  0.3201128951310001
  0.3881132213270000  0.1643396644810000  0.3201128951310000
  0.7214465546603333  0.1643396644810000  0.3201128951310001
  0.0547798879936667  0.6643396644810000  0.3201128951310000
  0.3881132213270000  0.6643396644810001  0.3201128951310001
  0.7214465546603334  0.6643396644810000  0.3201128951310000
  0.0547798879936667  0.1643396644810000  0.8201128951309999
  0.3881132213270000  0.1643396644810000  0.8201128951310001
  0.7214465546603334  0.1643396644810000  0.8201128951310001
  0.0547798879936667  0.6643396644810000  0.8201128951309999
  0.3881132213270000  0.6643396644810000  0.8201128951309999
  0.7214465546603334  0.6643396644810000  0.8201128951309999